100 10
270 416
692 351
192 694
187 415
185 805
921 812
327 761
144 375
476 756
543 723
632 827
667 766
436 642
893 405
769 438
710 658
829 546
655 951
547 607
366 816
671 801
377 297
584 581
819 643
155 756
310 402
261 724
887 813
295 609
305 267
294 467
565 363
104 380
506 366
574 388
286 443
723 397
696 355
398 596
720 373
686 447
255 565
883 577
805 596
184 567
700 528
563 240
674 251
883 894
759 524
373 299
173 649
533 487
404 570
444 830
322 630
147 753
389 744
543 476
748 339
233 529
627 314
801 633
408 587
784 587
493 501
664 563
530 676
945 415
246 687
636 863
295 384
378 456
221 437
207 283
256 445
162 699
314 627
517 905
348 780
173 313
360 614
439 511
458 614
685 280
450 600
354 491
920 795
952 868
607 291
503 403
293 505
284 386
580 673
671 613
362 620
601 653
365 307
355 499
346 594
